etc/upTests/tupley3-1/0004.eprime
language ESSENCE' 1.0

find pain_SetOccurrence:
        matrix indexed by [int(1..2), int(3..4), int(6, 8)] of bool
such that
    pain_SetOccurrence[1, 3, 6] = true,
    pain_SetOccurrence[1, 4, 8] = true,
    forAll v__0 : int(1..2)
        . (forAll v__1 : int(3..4)
               . (sum v__2 : int(6, 8) . pain_SetOccurrence[v__0, v__1, v__2]) >= 1)
