etc/upTests/tupley3-1/0004.eprime.solution
language ESSENCE' 1.0
$ minion Nodes: 5
$ minion TotalTime: 0.000669
$ Savile Row TotalTime: 0.416
letting pain_SetOccurrence be [[[true, false;int(6,8)], 
[false, true;int(6,8)];int(3..4)], 
[[false, true;int(6,8)], 
[false, true;int(6,8)];int(3..4)];int(1..2)]
